60
raw_data/mm-rcpsp/MMLIB50/J5012_5.mm
Time limit set to 60 seconds
Running CP solver
/home/omastto1/General-Optimization-Solver/src/solvers/mmrcpsp.py:42(stream:276:6): Warning: Cumulative expression 'pulse': height is zero, expression is zero everywhere.
                                                                                               VarCumulAtom_419 = pulse(task_0_mode_0, 0)
/home/omastto1/General-Optimization-Solver/src/solvers/mmrcpsp.py:42(stream:276:3910): Warning: Cumulative expression 'pulse': height is zero, expression is zero everywhere.
                                                                                                  VarCumulAtom_570 = pulse(task_51_mode_0, 0)
/home/omastto1/General-Optimization-Solver/src/solvers/mmrcpsp.py:42(stream:277:6): Warning: Cumulative expression 'pulse': height is zero, expression is zero everywhere.
                                                                                               VarCumulAtom_574 = pulse(task_0_mode_0, 0)
/home/omastto1/General-Optimization-Solver/src/solvers/mmrcpsp.py:42(stream:277:3910): Warning: Cumulative expression 'pulse': height is zero, expression is zero everywhere.
                                                                                                  VarCumulAtom_725 = pulse(task_51_mode_0, 0)
 ! --------------------------------------------------- CP Optimizer 20.1.0.0 --
 ! Minimization problem - 205 variables, 269 constraints
 ! TimeLimit            = 60
 ! Workers              = 14
 ! LogVerbosity         = Terse
 ! Initial process time : 0.00s (0.00s extraction + 0.00s propagation)
 !  . Log search space  : 520.2 (before), 520.2 (after)
 !  . Memory usage      : 1.3 MB (before), 1.3 MB (after)
 ! Using parallel search with 14 workers.
 ! ----------------------------------------------------------------------------
 !          Best Branches  Non-fixed    W       Branch decision
                        0        205                 -
 + New bound is 21
 ! Using iterative diving.
 ! Using temporal relaxation.
 *            53      123  0.88s        1      (gap is 60.38%)
 *            48      331  0.88s        1      (gap is 56.25%)
 *            45      531  0.88s        1      (gap is 53.33%)
 *            41      639  0.88s        1      (gap is 48.78%)
 *            40      803  0.88s        1      (gap is 47.50%)
 *            39      961  0.88s        1      (gap is 46.15%)
 *            37     1069  0.88s        1      (gap is 43.24%)
 *            36     1181  0.88s        1      (gap is 41.67%)
 *            34     1363  0.88s        1      (gap is 38.24%)
 *            33     1358  0.88s        4      (gap is 36.36%)
 *            32     1647  0.88s        4      (gap is 34.38%)
 *            31     4485  1.57s        1      (gap is 32.26%)
 *            29     3027  1.57s        3      (gap is 27.59%)
 *            28     3154  1.57s        6      (gap is 25.00%)
 ! Using failure-directed search.
 *            27    14011  4.50s        6      (gap is 22.22%)
 *            26    36033  13.13s       6      (gap is 19.23%)
 ! ----------------------------------------------------------------------------
 ! Search terminated by limit, 16 solutions found.
 ! Best objective         : 26 (gap is 19.23%)
 ! Best bound             : 21
 ! ----------------------------------------------------------------------------
 ! Number of branches     : 5256222
 ! Number of fails        : 1007493
 ! Total memory usage     : 19.7 MB (19.5 MB CP Optimizer + 0.2 MB Concert)
 ! Time spent in solve    : 60.03s (60.03s engine + 0.00s extraction)
 ! Search speed (br. / s) : 87574.5
 ! ----------------------------------------------------------------------------
task_0: (start=0, end=0, size=0, length=0)
Task 0 is scheduled in mode 0 from 0 to 0
task_1: (start=1, end=2, size=1, length=1)
Task 1 is scheduled in mode 0 from 1 to 2
task_2: (start=1, end=7, size=6, length=6)
Task 2 is scheduled in mode 1 from 1 to 7
task_3: (start=0, end=7, size=7, length=7)
Task 3 is scheduled in mode 2 from 0 to 7
task_4: (start=0, end=1, size=1, length=1)
Task 4 is scheduled in mode 0 from 0 to 1
task_5: (start=0, end=1, size=1, length=1)
Task 5 is scheduled in mode 0 from 0 to 1
task_6: (start=0, end=2, size=2, length=2)
Task 6 is scheduled in mode 0 from 0 to 2
task_7: (start=2, end=4, size=2, length=2)
Task 7 is scheduled in mode 0 from 2 to 4
task_8: (start=0, end=1, size=1, length=1)
Task 8 is scheduled in mode 0 from 0 to 1
task_9: (start=2, end=7, size=5, length=5)
Task 9 is scheduled in mode 0 from 2 to 7
task_10: (start=7, end=9, size=2, length=2)
Task 10 is scheduled in mode 0 from 7 to 9
task_11: (start=2, end=6, size=4, length=4)
Task 11 is scheduled in mode 1 from 2 to 6
task_12: (start=7, end=13, size=6, length=6)
Task 12 is scheduled in mode 1 from 7 to 13
task_13: (start=10, end=12, size=2, length=2)
Task 13 is scheduled in mode 0 from 10 to 12
task_14: (start=1, end=2, size=1, length=1)
Task 14 is scheduled in mode 0 from 1 to 2
task_15: (start=6, end=7, size=1, length=1)
Task 15 is scheduled in mode 0 from 6 to 7
task_16: (start=9, end=12, size=3, length=3)
Task 16 is scheduled in mode 0 from 9 to 12
task_17: (start=12, end=15, size=3, length=3)
Task 17 is scheduled in mode 0 from 12 to 15
task_18: (start=7, end=10, size=3, length=3)
Task 18 is scheduled in mode 0 from 7 to 10
task_19: (start=7, end=9, size=2, length=2)
Task 19 is scheduled in mode 0 from 7 to 9
task_20: (start=14, end=21, size=7, length=7)
Task 20 is scheduled in mode 1 from 14 to 21
task_21: (start=2, end=5, size=3, length=3)
Task 21 is scheduled in mode 0 from 2 to 5
task_22: (start=12, end=14, size=2, length=2)
Task 22 is scheduled in mode 0 from 12 to 14
task_23: (start=14, end=17, size=3, length=3)
Task 23 is scheduled in mode 0 from 14 to 17
task_24: (start=13, end=14, size=1, length=1)
Task 24 is scheduled in mode 0 from 13 to 14
task_25: (start=4, end=14, size=10, length=10)
Task 25 is scheduled in mode 2 from 4 to 14
task_26: (start=12, end=17, size=5, length=5)
Task 26 is scheduled in mode 0 from 12 to 17
task_27: (start=4, end=7, size=3, length=3)
Task 27 is scheduled in mode 0 from 4 to 7
task_28: (start=15, end=20, size=5, length=5)
Task 28 is scheduled in mode 0 from 15 to 20
task_29: (start=7, end=8, size=1, length=1)
Task 29 is scheduled in mode 0 from 7 to 8
task_30: (start=5, end=7, size=2, length=2)
Task 30 is scheduled in mode 0 from 5 to 7
task_31: (start=0, end=4, size=4, length=4)
Task 31 is scheduled in mode 2 from 0 to 4
task_32: (start=15, end=17, size=2, length=2)
Task 32 is scheduled in mode 1 from 15 to 17
task_33: (start=19, end=20, size=1, length=1)
Task 33 is scheduled in mode 0 from 19 to 20
task_34: (start=17, end=19, size=2, length=2)
Task 34 is scheduled in mode 0 from 17 to 19
task_35: (start=20, end=23, size=3, length=3)
Task 35 is scheduled in mode 1 from 20 to 23
task_36: (start=14, end=17, size=3, length=3)
Task 36 is scheduled in mode 1 from 14 to 17
task_37: (start=21, end=26, size=5, length=5)
Task 37 is scheduled in mode 0 from 21 to 26
task_38: (start=20, end=24, size=4, length=4)
Task 38 is scheduled in mode 1 from 20 to 24
task_39: (start=21, end=22, size=1, length=1)
Task 39 is scheduled in mode 0 from 21 to 22
task_40: (start=22, end=24, size=2, length=2)
Task 40 is scheduled in mode 1 from 22 to 24
task_41: (start=20, end=26, size=6, length=6)
Task 41 is scheduled in mode 0 from 20 to 26
task_42: (start=17, end=23, size=6, length=6)
Task 42 is scheduled in mode 1 from 17 to 23
task_43: (start=17, end=21, size=4, length=4)
Task 43 is scheduled in mode 0 from 17 to 21
task_44: (start=25, end=26, size=1, length=1)
Task 44 is scheduled in mode 0 from 25 to 26
task_45: (start=24, end=26, size=2, length=2)
Task 45 is scheduled in mode 0 from 24 to 26
task_46: (start=23, end=24, size=1, length=1)
Task 46 is scheduled in mode 0 from 23 to 24
task_47: (start=15, end=25, size=10, length=10)
Task 47 is scheduled in mode 2 from 15 to 25
task_48: (start=21, end=25, size=4, length=4)
Task 48 is scheduled in mode 2 from 21 to 25
task_49: (start=9, end=12, size=3, length=3)
Task 49 is scheduled in mode 0 from 9 to 12
task_50: (start=24, end=26, size=2, length=2)
Task 50 is scheduled in mode 0 from 24 to 26
task_51: (start=26, end=26, size=0, length=0)
Task 51 is scheduled in mode 0 from 26 to 26
Feasible solution found
Objective value: 26
Solution is 23.8 % worse than the lower bound.
